\ENCODING=ISO-8859-1
\Problem name: ilog.cplex

Maximize
 obj: 486 x(0)#0 + 737 x(1)#1 + 887 x(2)#2 + 556 x(3)#3 + 775 x(4)#4
      + 314 x(5)#5 + 592 x(6)#6 + 522 x(7)#7 + 694 x(8)#8 + 388 x(9)#9
      + 702 x(10)#10 + 598 x(11)#11 + 916 x(12)#12 + 722 x(13)#13
      + 895 x(14)#14 + 696 x(15)#15 + 561 x(16)#16 + 479 x(17)#17
      + 964 x(18)#18 + 650 x(19)#19 + 849 x(20)#20 + 541 x(21)#21
      + 996 x(22)#22 + 504 x(23)#23 + 791 x(24)#24 + 499 x(25)#25
      + 309 x(26)#26 + 895 x(27)#27 + 482 x(28)#28 + 862 x(29)#29
      + 793 x(30)#30 + 860 x(31)#31 + 886 x(32)#32 + 544 x(33)#33
      + 667 x(34)#34 + 539 x(35)#35 + 719 x(36)#36 + 722 x(37)#37
      + 592 x(38)#38 + 951 x(39)#39 + 602 x(40)#40 + 882 x(41)#41
      + 502 x(42)#42 + 1003 x(43)#43 + 626 x(44)#44 + 827 x(45)#45
      + 742 x(46)#46 + 709 x(47)#47 + 737 x(48)#48 + 589 x(49)#49
      + 689 x(50)#50 + 594 x(51)#51 + 750 x(52)#52 + 866 x(53)#53
      + 633 x(54)#54 + 763 x(55)#55 + 559 x(56)#56 + 926 x(57)#57
      + 563 x(58)#58 + 671 x(59)#59 + 651 x(60)#60 + 907 x(61)#61
      + 630 x(62)#62 + 688 x(63)#63 + 735 x(64)#64 + 704 x(65)#65
      + 1004 x(66)#66 + 480 x(67)#67 + 474 x(68)#68 + 729 x(69)#69
      + 523 x(70)#70 + 867 x(71)#71 + 701 x(72)#72 + 959 x(73)#73
      + 833 x(74)#74 + 972 x(75)#75 + 818 x(76)#76 + 665 x(77)#77
      + 866 x(78)#78 + 589 x(79)#79 + 698 x(80)#80 + 501 x(81)#81
      + 844 x(82)#82 + 857 x(83)#83 + 723 x(84)#84 + 504 x(85)#85
      + 834 x(86)#86 + 754 x(87)#87 + 961 x(88)#88 + 427 x(89)#89
      + 1052 x(90)#90 + 906 x(91)#91 + 851 x(92)#92 + 713 x(93)#93
      + 859 x(94)#94 + 587 x(95)#95 + 841 x(96)#96 + 604 x(97)#97
      + 671 x(98)#98 + 912 x(99)#99
Subject To
 c1:  859 x(0)#0 + 750 x(1)#1 + 83 x(2)#2 + 297 x(3)#3 + 690 x(4)#4 + 10 x(5)#5
      + 347 x(6)#6 + 466 x(7)#7 + 696 x(8)#8 + 397 x(9)#9 + 695 x(10)#10
      + 171 x(11)#11 + 319 x(12)#12 + 48 x(13)#13 + 821 x(14)#14 + 352 x(15)#15
      + 571 x(16)#16 + 828 x(17)#17 + 109 x(18)#18 + 131 x(19)#19 + 19 x(20)#20
      + 193 x(21)#21 + 840 x(22)#22 + 141 x(23)#23 + 522 x(24)#24
      + 496 x(25)#25 + 247 x(26)#26 + 923 x(27)#27 + 502 x(28)#28
      + 434 x(29)#29 + 227 x(30)#30 + 608 x(31)#31 + 726 x(32)#32
      + 669 x(33)#33 + 887 x(34)#34 + 93 x(35)#35 + 779 x(36)#36 + 626 x(37)#37
      + 655 x(38)#38 + 139 x(39)#39 + 813 x(40)#40 + 944 x(41)#41
      + 528 x(42)#42 + 597 x(43)#43 + 106 x(44)#44 + 286 x(45)#45
      + 492 x(46)#46 + 598 x(47)#47 + 135 x(48)#48 + 530 x(49)#49
      + 452 x(50)#50 + 902 x(51)#51 + 143 x(52)#52 + 732 x(53)#53
      + 244 x(54)#54 + 540 x(55)#55 + 51 x(56)#56 + 114 x(57)#57 + 309 x(58)#58
      + 98 x(59)#59 + 935 x(60)#60 + 690 x(61)#61 + 205 x(62)#62 + 418 x(63)#63
      + 681 x(64)#64 + 337 x(65)#65 + 151 x(66)#66 + 580 x(67)#67
      + 656 x(68)#68 + 6 x(69)#69 + 250 x(70)#70 + 237 x(71)#71 + 320 x(72)#72
      + 774 x(73)#73 + 586 x(74)#74 + 967 x(75)#75 + 927 x(76)#76
      + 525 x(77)#77 + 289 x(78)#78 + 475 x(79)#79 + 375 x(80)#80
      + 289 x(81)#81 + 699 x(82)#82 + 823 x(83)#83 + 65 x(84)#84 + 151 x(85)#85
      + 332 x(86)#86 + 471 x(87)#87 + 54 x(88)#88 + 450 x(89)#89 + 401 x(90)#90
      + 452 x(91)#91 + 750 x(92)#92 + 63 x(93)#93 + 57 x(94)#94 + 928 x(95)#95
      + 340 x(96)#96 + 297 x(97)#97 + 2 x(98)#98 + 901 x(99)#99 <= 11222
 c2:  71 x(0)#0 + 518 x(1)#1 + 452 x(2)#2 + 336 x(3)#3 + 329 x(4)#4
      + 798 x(5)#5 + 830 x(6)#6 + 17 x(7)#7 + 13 x(8)#8 + 174 x(9)#9
      + 578 x(10)#10 + 287 x(11)#11 + 403 x(12)#12 + 657 x(13)#13
      + 377 x(14)#14 + 333 x(15)#15 + 844 x(16)#16 + 937 x(17)#17
      + 629 x(18)#18 + 79 x(19)#19 + 684 x(20)#20 + 808 x(21)#21 + 499 x(22)#22
      + 403 x(23)#23 + 97 x(24)#24 + 162 x(25)#25 + 45 x(26)#26 + 928 x(27)#27
      + 544 x(28)#28 + 646 x(29)#29 + 601 x(30)#30 + 24 x(31)#31 + 82 x(32)#32
      + 696 x(33)#33 + 996 x(34)#34 + 148 x(35)#35 + 105 x(36)#36
      + 944 x(37)#37 + 412 x(38)#38 + 379 x(39)#39 + 901 x(40)#40
      + 505 x(41)#41 + 679 x(42)#42 + 82 x(43)#43 + 788 x(44)#44 + 737 x(45)#45
      + 743 x(46)#46 + 466 x(47)#47 + 533 x(48)#48 + 442 x(49)#49
      + 314 x(50)#50 + 485 x(51)#51 + 851 x(52)#52 + 45 x(53)#53 + 3 x(54)#54
      + 262 x(55)#55 + 666 x(56)#56 + 458 x(57)#57 + 474 x(58)#58
      + 187 x(59)#59 + 355 x(60)#60 + 495 x(61)#61 + 372 x(62)#62
      + 580 x(63)#63 + 48 x(64)#64 + 15 x(65)#65 + 499 x(66)#66 + 201 x(67)#67
      + 438 x(68)#68 + 461 x(69)#69 + 819 x(70)#70 + 741 x(71)#71
      + 965 x(72)#72 + 492 x(73)#73 + 490 x(74)#74 + 884 x(75)#75
      + 553 x(76)#76 + 185 x(77)#77 + 853 x(78)#78 + 149 x(79)#79
      + 334 x(80)#80 + 955 x(81)#81 + 673 x(82)#82 + 783 x(83)#83
      + 157 x(84)#84 + 264 x(85)#85 + 880 x(86)#86 + 165 x(87)#87
      + 752 x(88)#88 + 895 x(89)#89 + 368 x(90)#90 + 985 x(91)#91
      + 223 x(92)#92 + 509 x(93)#93 + 699 x(94)#94 + 491 x(95)#95
      + 473 x(96)#96 + 576 x(97)#97 + 920 x(98)#98 + 694 x(99)#99 <= 12219
 c3:  970 x(0)#0 + 845 x(1)#1 + 964 x(2)#2 + 454 x(3)#3 + 655 x(4)#4
      + 514 x(5)#5 + 89 x(6)#6 + 156 x(7)#7 + 642 x(8)#8 + 442 x(9)#9
      + 258 x(10)#10 + 597 x(11)#11 + 981 x(12)#12 + 164 x(13)#13
      + 875 x(14)#14 + 814 x(15)#15 + 888 x(16)#16 + 122 x(17)#17
      + 595 x(18)#18 + 72 x(19)#19 + 956 x(20)#20 + 50 x(21)#21 + 327 x(22)#22
      + 275 x(23)#23 + 123 x(24)#24 + 671 x(25)#25 + 301 x(26)#26
      + 803 x(27)#27 + 325 x(28)#28 + 653 x(29)#29 + 173 x(30)#30
      + 573 x(31)#31 + 868 x(32)#32 + 679 x(33)#33 + 95 x(34)#34 + 392 x(35)#35
      + 954 x(36)#36 + 344 x(37)#37 + 900 x(38)#38 + 876 x(39)#39
      + 455 x(40)#40 + 731 x(41)#41 + 775 x(42)#42 + 923 x(43)#43
      + 516 x(44)#44 + 459 x(45)#45 + 272 x(46)#46 + 858 x(47)#47
      + 254 x(48)#48 + 362 x(49)#49 + 108 x(50)#50 + 838 x(51)#51
      + 948 x(52)#52 + 667 x(53)#53 + 366 x(54)#54 + 519 x(55)#55
      + 880 x(56)#56 + 446 x(57)#57 + 91 x(58)#58 + 157 x(59)#59 + 253 x(60)#60
      + 454 x(61)#61 + 744 x(62)#62 + 988 x(63)#63 + 684 x(64)#64 + 27 x(65)#65
      + 652 x(66)#66 + 90 x(67)#67 + 222 x(68)#68 + 464 x(69)#69 + 765 x(70)#70
      + 226 x(71)#71 + 848 x(72)#72 + 61 x(73)#73 + 180 x(74)#74 + 296 x(75)#75
      + 818 x(76)#76 + 331 x(77)#77 + 791 x(78)#78 + 475 x(79)#79
      + 455 x(80)#80 + 441 x(81)#81 + 874 x(82)#82 + 913 x(83)#83
      + 706 x(84)#84 + 424 x(85)#85 + 381 x(86)#86 + 390 x(87)#87
      + 844 x(88)#88 + 385 x(89)#89 + 12 x(90)#90 + 322 x(91)#91 + 367 x(92)#92
      + 818 x(93)#93 + 769 x(94)#94 + 837 x(95)#95 + 962 x(96)#96
      + 810 x(97)#97 + 106 x(98)#98 + 907 x(99)#99 <= 13288
 c4:  355 x(0)#0 + 218 x(1)#1 + 866 x(2)#2 + 136 x(3)#3 + 366 x(4)#4
      + 223 x(5)#5 + 584 x(6)#6 + 546 x(7)#7 + 608 x(8)#8 + 505 x(9)#9
      + 9 x(10)#10 + 665 x(11)#11 + 609 x(12)#12 + 134 x(13)#13 + 150 x(14)#14
      + 103 x(15)#15 + 45 x(16)#16 + 868 x(17)#17 + 382 x(18)#18 + 304 x(19)#19
      + 521 x(20)#20 + 288 x(21)#21 + 273 x(22)#22 + 120 x(23)#23
      + 693 x(24)#24 + 289 x(25)#25 + 34 x(26)#26 + 758 x(27)#27 + 167 x(28)#28
      + 195 x(29)#29 + 730 x(30)#30 + 333 x(31)#31 + 553 x(32)#32
      + 653 x(33)#33 + 36 x(34)#34 + 276 x(35)#35 + 240 x(36)#36 + 330 x(37)#37
      + 292 x(38)#38 + 562 x(39)#39 + 908 x(40)#40 + 39 x(41)#41 + 150 x(42)#42
      + 636 x(43)#43 + 526 x(44)#44 + 537 x(45)#45 + 384 x(46)#46
      + 506 x(47)#47 + 853 x(48)#48 + 12 x(49)#49 + 23 x(50)#50 + 653 x(51)#51
      + 870 x(52)#52 + 44 x(53)#53 + 578 x(54)#54 + 272 x(55)#55 + 254 x(56)#56
      + 276 x(57)#57 + 433 x(58)#58 + 833 x(59)#59 + 217 x(60)#60
      + 135 x(61)#61 + 220 x(62)#62 + 910 x(63)#63 + 625 x(64)#64
      + 449 x(65)#65 + 754 x(66)#66 + 224 x(67)#67 + 390 x(68)#68
      + 509 x(69)#69 + 176 x(70)#70 + 592 x(71)#71 + 280 x(72)#72
      + 765 x(73)#73 + 549 x(74)#74 + 876 x(75)#75 + 468 x(76)#76
      + 995 x(77)#77 + 127 x(78)#78 + 416 x(79)#79 + 322 x(80)#80
      + 739 x(81)#81 + 841 x(82)#82 + 36 x(83)#83 + 539 x(84)#84 + 788 x(85)#85
      + 895 x(86)#86 + 322 x(87)#87 + 451 x(88)#88 + 426 x(89)#89
      + 743 x(90)#90 + 652 x(91)#91 + 722 x(92)#92 + 133 x(93)#93
      + 607 x(94)#94 + 79 x(95)#95 + 682 x(96)#96 + 991 x(97)#97 + 381 x(98)#98
      + 602 x(99)#99 <= 11109
 c5:  728 x(0)#0 + 904 x(1)#1 + 531 x(2)#2 + 245 x(3)#3 + 890 x(4)#4
      + 306 x(5)#5 + 192 x(6)#6 + 81 x(7)#7 + 157 x(8)#8 + 171 x(9)#9
      + 589 x(10)#10 + 651 x(11)#11 + 484 x(12)#12 + 630 x(13)#13
      + 251 x(14)#14 + 31 x(15)#15 + 400 x(16)#16 + 209 x(17)#17 + 687 x(18)#18
      + 174 x(19)#19 + 986 x(20)#20 + 948 x(21)#21 + 155 x(22)#22
      + 248 x(23)#23 + 977 x(24)#24 + 246 x(25)#25 + 884 x(26)#26
      + 873 x(27)#27 + 140 x(28)#28 + 526 x(29)#29 + 621 x(30)#30
      + 475 x(31)#31 + 782 x(32)#32 + 516 x(33)#33 + 990 x(34)#34
      + 487 x(35)#35 + 980 x(36)#36 + 294 x(37)#37 + 172 x(38)#38
      + 618 x(39)#39 + 232 x(40)#40 + 978 x(41)#41 + 543 x(42)#42
      + 921 x(43)#43 + 676 x(44)#44 + 671 x(45)#45 + 550 x(46)#46
      + 725 x(47)#47 + 477 x(48)#48 + 546 x(49)#49 + 451 x(50)#50 + 92 x(51)#51
      + 333 x(52)#52 + 57 x(53)#53 + 974 x(54)#54 + 398 x(55)#55 + 502 x(56)#56
      + 544 x(57)#57 + 74 x(58)#58 + 378 x(59)#59 + 23 x(60)#60 + 775 x(61)#61
      + 130 x(62)#62 + 419 x(63)#63 + 609 x(64)#64 + 56 x(65)#65 + 913 x(66)#66
      + 343 x(67)#67 + 862 x(68)#68 + 458 x(69)#69 + 772 x(70)#70
      + 673 x(71)#71 + 790 x(72)#72 + 415 x(73)#73 + 264 x(74)#74
      + 531 x(75)#75 + 72 x(76)#76 + 246 x(77)#77 + 682 x(78)#78 + 645 x(79)#79
      + 19 x(80)#80 + 55 x(81)#81 + 179 x(82)#82 + 932 x(83)#83 + 107 x(84)#84
      + 833 x(85)#85 + 616 x(86)#86 + 620 x(87)#87 + 970 x(88)#88
      + 422 x(89)#89 + 931 x(90)#90 + 115 x(91)#91 + 891 x(92)#92
      + 553 x(93)#93 + 139 x(94)#94 + 682 x(95)#95 + 415 x(96)#96 + 93 x(97)#97
      + 924 x(98)#98 + 501 x(99)#99 <= 12507
 c6:  382 x(0)#0 + 765 x(1)#1 + 846 x(2)#2 + 101 x(3)#3 + 381 x(4)#4
      + 731 x(5)#5 + 518 x(6)#6 + 377 x(7)#7 + 618 x(8)#8 + 905 x(9)#9
      + 703 x(10)#10 + 65 x(11)#11 + 961 x(12)#12 + 777 x(13)#13 + 590 x(14)#14
      + 142 x(15)#15 + 228 x(16)#16 + 293 x(17)#17 + 912 x(18)#18
      + 875 x(19)#19 + 43 x(20)#20 + 750 x(21)#21 + 773 x(22)#22 + 124 x(23)#23
      + 145 x(24)#24 + 149 x(25)#25 + 297 x(26)#26 + 792 x(27)#27 + 98 x(28)#28
      + 674 x(29)#29 + 374 x(30)#30 + 472 x(31)#31 + 998 x(32)#32
      + 280 x(33)#33 + 899 x(34)#34 + 733 x(35)#35 + 247 x(36)#36
      + 493 x(37)#37 + 106 x(38)#38 + 483 x(39)#39 + 402 x(40)#40
      + 139 x(41)#41 + 84 x(42)#42 + 464 x(43)#43 + 695 x(44)#44 + 840 x(45)#45
      + 741 x(46)#46 + 298 x(47)#47 + 384 x(48)#48 + 85 x(49)#49 + 576 x(50)#50
      + 635 x(51)#51 + 307 x(52)#52 + 256 x(53)#53 + 344 x(54)#54
      + 109 x(55)#55 + 488 x(56)#56 + 482 x(57)#57 + 828 x(58)#58
      + 717 x(59)#59 + 9 x(60)#60 + 168 x(61)#61 + 184 x(62)#62 + 594 x(63)#63
      + 700 x(64)#64 + 2 x(65)#65 + 850 x(66)#66 + 147 x(67)#67 + 83 x(68)#68
      + 286 x(69)#69 + 555 x(70)#70 + 161 x(71)#71 + 46 x(72)#72 + 833 x(73)#73
      + 642 x(74)#74 + 833 x(75)#75 + 301 x(76)#76 + 619 x(77)#77
      + 344 x(78)#78 + 568 x(79)#79 + 407 x(80)#80 + 328 x(81)#81
      + 662 x(82)#82 + 580 x(83)#83 + 33 x(84)#84 + 917 x(85)#85 + 726 x(86)#86
      + 366 x(87)#87 + 695 x(88)#88 + 408 x(89)#89 + 443 x(90)#90
      + 169 x(91)#91 + 956 x(92)#92 + 494 x(93)#93 + 465 x(94)#94 + 98 x(95)#95
      + 858 x(96)#96 + 100 x(97)#97 + 196 x(98)#98 + 893 x(99)#99 <= 11673
 c7:  737 x(0)#0 + 245 x(1)#1 + 427 x(2)#2 + 923 x(3)#3 + 479 x(4)#4
      + 46 x(5)#5 + 841 x(6)#6 + 837 x(7)#7 + 779 x(8)#8 + 42 x(9)#9
      + 446 x(10)#10 + 943 x(11)#11 + 898 x(12)#12 + 238 x(13)#13
      + 410 x(14)#14 + 597 x(15)#15 + 181 x(16)#16 + 260 x(17)#17
      + 957 x(18)#18 + 479 x(19)#19 + 385 x(20)#20 + 416 x(21)#21
      + 359 x(22)#22 + 836 x(23)#23 + 436 x(24)#24 + 589 x(25)#25
      + 131 x(26)#26 + 808 x(27)#27 + 840 x(28)#28 + 909 x(29)#29
      + 849 x(30)#30 + 732 x(31)#31 + 49 x(32)#32 + 290 x(33)#33 + 8 x(34)#34
      + 33 x(35)#35 + 702 x(36)#36 + 463 x(37)#37 + 24 x(38)#38 + 189 x(39)#39
      + 354 x(40)#40 + 286 x(41)#41 + 825 x(42)#42 + 545 x(43)#43
      + 295 x(44)#44 + 736 x(45)#45 + 405 x(46)#46 + 856 x(47)#47
      + 471 x(48)#48 + 598 x(49)#49 + 110 x(50)#50 + 232 x(51)#51
      + 243 x(52)#52 + 466 x(53)#53 + 47 x(54)#54 + 382 x(55)#55 + 400 x(56)#56
      + 940 x(57)#57 + 587 x(58)#58 + 603 x(59)#59 + 388 x(60)#60
      + 165 x(61)#61 + 369 x(62)#62 + 169 x(63)#63 + 315 x(64)#64
      + 126 x(65)#65 + 154 x(66)#66 + 419 x(67)#67 + 90 x(68)#68 + 246 x(69)#69
      + 184 x(70)#70 + 271 x(71)#71 + 704 x(72)#72 + 150 x(73)#73
      + 750 x(74)#74 + 853 x(75)#75 + 344 x(76)#76 + 909 x(77)#77
      + 647 x(78)#78 + 964 x(79)#79 + 240 x(80)#80 + 562 x(81)#81
      + 984 x(82)#82 + 697 x(83)#83 + 726 x(84)#84 + 612 x(85)#85 + 21 x(86)#86
      + 447 x(87)#87 + 951 x(88)#88 + 51 x(89)#89 + 740 x(90)#90 + 797 x(91)#91
      + 783 x(92)#92 + 309 x(93)#93 + 659 x(94)#94 + 682 x(95)#95
      + 216 x(96)#96 + 776 x(97)#97 + 146 x(98)#98 + 601 x(99)#99 <= 12103
 c8:  19 x(0)#0 + 187 x(1)#1 + 193 x(2)#2 + 444 x(3)#3 + 431 x(4)#4
      + 146 x(5)#5 + 296 x(6)#6 + 938 x(7)#7 + 164 x(8)#8 + 245 x(9)#9
      + 248 x(10)#10 + 737 x(11)#11 + 815 x(12)#12 + 264 x(13)#13
      + 180 x(14)#14 + 538 x(15)#15 + 435 x(16)#16 + 617 x(17)#17
      + 975 x(18)#18 + 878 x(19)#19 + 955 x(20)#20 + 747 x(21)#21
      + 524 x(22)#22 + 220 x(23)#23 + 146 x(24)#24 + 876 x(25)#25 + 40 x(26)#26
      + 960 x(27)#27 + 191 x(28)#28 + 745 x(29)#29 + 600 x(30)#30
      + 922 x(31)#31 + 705 x(32)#32 + 709 x(33)#33 + 266 x(34)#34
      + 580 x(35)#35 + 822 x(36)#36 + 875 x(37)#37 + 493 x(38)#38
      + 698 x(39)#39 + 108 x(40)#40 + 401 x(41)#41 + 199 x(42)#42
      + 502 x(43)#43 + 676 x(44)#44 + 905 x(45)#45 + 258 x(46)#46 + 82 x(47)#47
      + 737 x(48)#48 + 638 x(49)#49 + 950 x(50)#50 + 269 x(51)#51
      + 428 x(52)#52 + 635 x(53)#53 + 372 x(54)#54 + 370 x(55)#55
      + 900 x(56)#56 + 107 x(57)#57 + 712 x(58)#58 + 203 x(59)#59 + 64 x(60)#60
      + 392 x(61)#61 + 92 x(62)#62 + 624 x(63)#63 + 973 x(64)#64 + 476 x(65)#65
      + 572 x(66)#66 + 991 x(67)#67 + 390 x(68)#68 + 185 x(69)#69
      + 406 x(70)#70 + 923 x(71)#71 + 670 x(72)#72 + 433 x(73)#73
      + 141 x(74)#74 + 565 x(75)#75 + 63 x(76)#76 + 932 x(77)#77 + 346 x(78)#78
      + 179 x(79)#79 + 840 x(80)#80 + 5 x(81)#81 + 169 x(82)#82 + 955 x(83)#83
      + 72 x(84)#84 + 340 x(85)#85 + 980 x(86)#86 + 565 x(87)#87 + 309 x(88)#88
      + 177 x(89)#89 + 218 x(90)#90 + 819 x(91)#91 + 419 x(92)#92
      + 325 x(93)#93 + 462 x(94)#94 + 2 x(95)#95 + 413 x(96)#96 + 249 x(97)#97
      + 87 x(98)#98 + 501 x(99)#99 <= 11900
 c9:  101 x(0)#0 + 243 x(1)#1 + 594 x(2)#2 + 230 x(3)#3 + 116 x(4)#4
      + 100 x(5)#5 + 826 x(6)#6 + 668 x(7)#7 + 368 x(8)#8 + 650 x(9)#9
      + 763 x(10)#10 + 107 x(11)#11 + 24 x(12)#12 + 214 x(13)#13 + 969 x(14)#14
      + 479 x(15)#15 + 584 x(16)#16 + 37 x(17)#17 + 771 x(18)#18 + 718 x(19)#19
      + 709 x(20)#20 + 127 x(21)#21 + 287 x(22)#22 + 424 x(23)#23
      + 224 x(24)#24 + 937 x(25)#25 + 813 x(26)#26 + 479 x(27)#27
      + 459 x(28)#28 + 491 x(29)#29 + 738 x(30)#30 + 142 x(31)#31
      + 541 x(32)#32 + 233 x(33)#33 + 651 x(34)#34 + 596 x(35)#35 + 85 x(36)#36
      + 26 x(37)#37 + 421 x(38)#38 + 837 x(39)#39 + 671 x(40)#40 + 74 x(41)#41
      + 630 x(42)#42 + 436 x(43)#43 + 642 x(44)#44 + 696 x(45)#45
      + 262 x(46)#46 + 594 x(47)#47 + 813 x(48)#48 + 687 x(49)#49
      + 971 x(50)#50 + 101 x(51)#51 + 973 x(52)#52 + 700 x(53)#53
      + 759 x(54)#54 + 378 x(55)#55 + 440 x(56)#56 + 940 x(57)#57
      + 281 x(58)#58 + 841 x(59)#59 + 150 x(60)#60 + 67 x(61)#61 + 31 x(62)#62
      + 154 x(63)#63 + 357 x(64)#64 + 428 x(65)#65 + 894 x(66)#66
      + 587 x(67)#67 + 753 x(68)#68 + 772 x(69)#69 + 671 x(70)#70
      + 766 x(71)#71 + 509 x(72)#72 + 77 x(73)#73 + 330 x(74)#74 + 396 x(75)#75
      + 580 x(76)#76 + 979 x(77)#77 + 447 x(78)#78 + 565 x(79)#79 + 62 x(80)#80
      + 569 x(81)#81 + 529 x(82)#82 + 115 x(83)#83 + 580 x(84)#84 + 41 x(85)#85
      + 585 x(86)#86 + 17 x(87)#87 + 714 x(88)#88 + 61 x(89)#89 + 964 x(90)#90
      + 926 x(91)#91 + 526 x(92)#92 + 240 x(93)#93 + 883 x(94)#94 + 57 x(95)#95
      + 277 x(96)#96 + 811 x(97)#97 + 678 x(98)#98 + 900 x(99)#99 <= 12180
 c10: 600 x(0)#0 + 65 x(1)#1 + 272 x(2)#2 + 433 x(3)#3 + 641 x(4)#4
      + 242 x(5)#5 + 209 x(6)#6 + 741 x(7)#7 + 104 x(8)#8 + 64 x(9)#9
      + 966 x(10)#10 + 94 x(11)#11 + 91 x(12)#12 + 211 x(13)#13 + 432 x(14)#14
      + 214 x(15)#15 + 545 x(16)#16 + 461 x(17)#17 + 134 x(18)#18
      + 653 x(19)#19 + 614 x(20)#20 + 580 x(21)#21 + 988 x(22)#22
      + 239 x(23)#23 + 4 x(24)#24 + 211 x(25)#25 + 97 x(26)#26 + 275 x(27)#27
      + 557 x(28)#28 + 223 x(29)#29 + 849 x(30)#30 + 55 x(31)#31 + 947 x(32)#32
      + 570 x(33)#33 + 263 x(34)#34 + 484 x(35)#35 + 979 x(36)#36
      + 778 x(37)#37 + 409 x(38)#38 + 885 x(39)#39 + 245 x(40)#40
      + 118 x(41)#41 + 440 x(42)#42 + 166 x(43)#43 + 581 x(44)#44
      + 462 x(45)#45 + 622 x(46)#46 + 751 x(47)#47 + 494 x(48)#48
      + 904 x(49)#49 + 654 x(50)#50 + 341 x(51)#51 + 164 x(52)#52
      + 794 x(53)#53 + 514 x(54)#54 + 341 x(55)#55 + 534 x(56)#56
      + 347 x(57)#57 + 583 x(58)#58 + 511 x(59)#59 + 605 x(60)#60
      + 751 x(61)#61 + 520 x(62)#62 + 932 x(63)#63 + 720 x(64)#64
      + 814 x(65)#65 + 798 x(66)#66 + 848 x(67)#67 + 659 x(68)#68
      + 372 x(69)#69 + 570 x(70)#70 + 837 x(71)#71 + 411 x(72)#72
      + 942 x(73)#73 + 376 x(74)#74 + 669 x(75)#75 + 202 x(76)#76
      + 417 x(77)#77 + 380 x(78)#78 + 134 x(79)#79 + 355 x(80)#80
      + 787 x(81)#81 + 737 x(82)#82 + 811 x(83)#83 + 844 x(84)#84
      + 550 x(85)#85 + 661 x(86)#86 + 150 x(87)#87 + 910 x(88)#88
      + 648 x(89)#89 + 902 x(90)#90 + 447 x(91)#91 + 54 x(92)#92 + 804 x(93)#93
      + 531 x(94)#94 + 3 x(95)#95 + 81 x(96)#96 + 262 x(97)#97 + 978 x(98)#98
      + 125 x(99)#99 <= 12336
Bounds
 0 <= x(0)#0 <= 1
 0 <= x(1)#1 <= 1
 0 <= x(2)#2 <= 1
 0 <= x(3)#3 <= 1
 0 <= x(4)#4 <= 1
 0 <= x(5)#5 <= 1
 0 <= x(6)#6 <= 1
 0 <= x(7)#7 <= 1
 0 <= x(8)#8 <= 1
 0 <= x(9)#9 <= 1
 0 <= x(10)#10 <= 1
 0 <= x(11)#11 <= 1
 0 <= x(12)#12 <= 1
 0 <= x(13)#13 <= 1
 0 <= x(14)#14 <= 1
 0 <= x(15)#15 <= 1
 0 <= x(16)#16 <= 1
 0 <= x(17)#17 <= 1
 0 <= x(18)#18 <= 1
 0 <= x(19)#19 <= 1
 0 <= x(20)#20 <= 1
 0 <= x(21)#21 <= 1
 0 <= x(22)#22 <= 1
 0 <= x(23)#23 <= 1
 0 <= x(24)#24 <= 1
 0 <= x(25)#25 <= 1
 0 <= x(26)#26 <= 1
 0 <= x(27)#27 <= 1
 0 <= x(28)#28 <= 1
 0 <= x(29)#29 <= 1
 0 <= x(30)#30 <= 1
 0 <= x(31)#31 <= 1
 0 <= x(32)#32 <= 1
 0 <= x(33)#33 <= 1
 0 <= x(34)#34 <= 1
 0 <= x(35)#35 <= 1
 0 <= x(36)#36 <= 1
 0 <= x(37)#37 <= 1
 0 <= x(38)#38 <= 1
 0 <= x(39)#39 <= 1
 0 <= x(40)#40 <= 1
 0 <= x(41)#41 <= 1
 0 <= x(42)#42 <= 1
 0 <= x(43)#43 <= 1
 0 <= x(44)#44 <= 1
 0 <= x(45)#45 <= 1
 0 <= x(46)#46 <= 1
 0 <= x(47)#47 <= 1
 0 <= x(48)#48 <= 1
 0 <= x(49)#49 <= 1
 0 <= x(50)#50 <= 1
 0 <= x(51)#51 <= 1
 0 <= x(52)#52 <= 1
 0 <= x(53)#53 <= 1
 0 <= x(54)#54 <= 1
 0 <= x(55)#55 <= 1
 0 <= x(56)#56 <= 1
 0 <= x(57)#57 <= 1
 0 <= x(58)#58 <= 1
 0 <= x(59)#59 <= 1
 0 <= x(60)#60 <= 1
 0 <= x(61)#61 <= 1
 0 <= x(62)#62 <= 1
 0 <= x(63)#63 <= 1
 0 <= x(64)#64 <= 1
 0 <= x(65)#65 <= 1
 0 <= x(66)#66 <= 1
 0 <= x(67)#67 <= 1
 0 <= x(68)#68 <= 1
 0 <= x(69)#69 <= 1
 0 <= x(70)#70 <= 1
 0 <= x(71)#71 <= 1
 0 <= x(72)#72 <= 1
 0 <= x(73)#73 <= 1
 0 <= x(74)#74 <= 1
 0 <= x(75)#75 <= 1
 0 <= x(76)#76 <= 1
 0 <= x(77)#77 <= 1
 0 <= x(78)#78 <= 1
 0 <= x(79)#79 <= 1
 0 <= x(80)#80 <= 1
 0 <= x(81)#81 <= 1
 0 <= x(82)#82 <= 1
 0 <= x(83)#83 <= 1
 0 <= x(84)#84 <= 1
 0 <= x(85)#85 <= 1
 0 <= x(86)#86 <= 1
 0 <= x(87)#87 <= 1
 0 <= x(88)#88 <= 1
 0 <= x(89)#89 <= 1
 0 <= x(90)#90 <= 1
 0 <= x(91)#91 <= 1
 0 <= x(92)#92 <= 1
 0 <= x(93)#93 <= 1
 0 <= x(94)#94 <= 1
 0 <= x(95)#95 <= 1
 0 <= x(96)#96 <= 1
 0 <= x(97)#97 <= 1
 0 <= x(98)#98 <= 1
 0 <= x(99)#99 <= 1
Generals
 x(0)#0  x(1)#1  x(2)#2  x(3)#3  x(4)#4  x(5)#5  x(6)#6  x(7)#7  x(8)#8 
 x(9)#9  x(10)#10  x(11)#11  x(12)#12  x(13)#13  x(14)#14  x(15)#15  x(16)#16 
 x(17)#17  x(18)#18  x(19)#19  x(20)#20  x(21)#21  x(22)#22  x(23)#23 
 x(24)#24  x(25)#25  x(26)#26  x(27)#27  x(28)#28  x(29)#29  x(30)#30 
 x(31)#31  x(32)#32  x(33)#33  x(34)#34  x(35)#35  x(36)#36  x(37)#37 
 x(38)#38  x(39)#39  x(40)#40  x(41)#41  x(42)#42  x(43)#43  x(44)#44 
 x(45)#45  x(46)#46  x(47)#47  x(48)#48  x(49)#49  x(50)#50  x(51)#51 
 x(52)#52  x(53)#53  x(54)#54  x(55)#55  x(56)#56  x(57)#57  x(58)#58 
 x(59)#59  x(60)#60  x(61)#61  x(62)#62  x(63)#63  x(64)#64  x(65)#65 
 x(66)#66  x(67)#67  x(68)#68  x(69)#69  x(70)#70  x(71)#71  x(72)#72 
 x(73)#73  x(74)#74  x(75)#75  x(76)#76  x(77)#77  x(78)#78  x(79)#79 
 x(80)#80  x(81)#81  x(82)#82  x(83)#83  x(84)#84  x(85)#85  x(86)#86 
 x(87)#87  x(88)#88  x(89)#89  x(90)#90  x(91)#91  x(92)#92  x(93)#93 
 x(94)#94  x(95)#95  x(96)#96  x(97)#97  x(98)#98  x(99)#99 
End
